c generated by sgen
p cnf 125 260
-2 -3 -4 0
-1 -3 -4 0
-1 -2 -4 0
-1 -2 -3 0
-6 -7 -8 0
-5 -7 -8 0
-5 -6 -8 0
-5 -6 -7 0
-10 -11 -12 0
-9 -11 -12 0
-9 -10 -12 0
-9 -10 -11 0
-14 -15 -16 0
-13 -15 -16 0
-13 -14 -16 0
-13 -14 -15 0
-18 -19 -20 0
-17 -19 -20 0
-17 -18 -20 0
-17 -18 -19 0
-22 -23 -24 0
-21 -23 -24 0
-21 -22 -24 0
-21 -22 -23 0
-26 -27 -28 0
-25 -27 -28 0
-25 -26 -28 0
-25 -26 -27 0
-30 -31 -32 0
-29 -31 -32 0
-29 -30 -32 0
-29 -30 -31 0
-34 -35 -36 0
-33 -35 -36 0
-33 -34 -36 0
-33 -34 -35 0
-38 -39 -40 0
-37 -39 -40 0
-37 -38 -40 0
-37 -38 -39 0
-42 -43 -44 0
-41 -43 -44 0
-41 -42 -44 0
-41 -42 -43 0
-46 -47 -48 0
-45 -47 -48 0
-45 -46 -48 0
-45 -46 -47 0
-50 -51 -52 0
-49 -51 -52 0
-49 -50 -52 0
-49 -50 -51 0
-54 -55 -56 0
-53 -55 -56 0
-53 -54 -56 0
-53 -54 -55 0
-58 -59 -60 0
-57 -59 -60 0
-57 -58 -60 0
-57 -58 -59 0
-62 -63 -64 0
-61 -63 -64 0
-61 -62 -64 0
-61 -62 -63 0
-66 -67 -68 0
-65 -67 -68 0
-65 -66 -68 0
-65 -66 -67 0
-70 -71 -72 0
-69 -71 -72 0
-69 -70 -72 0
-69 -70 -71 0
-74 -75 -76 0
-73 -75 -76 0
-73 -74 -76 0
-73 -74 -75 0
-78 -79 -80 0
-77 -79 -80 0
-77 -78 -80 0
-77 -78 -79 0
-82 -83 -84 0
-81 -83 -84 0
-81 -82 -84 0
-81 -82 -83 0
-86 -87 -88 0
-85 -87 -88 0
-85 -86 -88 0
-85 -86 -87 0
-90 -91 -92 0
-89 -91 -92 0
-89 -90 -92 0
-89 -90 -91 0
-94 -95 -96 0
-93 -95 -96 0
-93 -94 -96 0
-93 -94 -95 0
-98 -99 -100 0
-97 -99 -100 0
-97 -98 -100 0
-97 -98 -99 0
-102 -103 -104 0
-101 -103 -104 0
-101 -102 -104 0
-101 -102 -103 0
-106 -107 -108 0
-105 -107 -108 0
-105 -106 -108 0
-105 -106 -107 0
-110 -111 -112 0
-109 -111 -112 0
-109 -110 -112 0
-109 -110 -111 0
-114 -115 -116 0
-113 -115 -116 0
-113 -114 -116 0
-113 -114 -115 0
-118 -119 -120 0
-117 -119 -120 0
-117 -118 -120 0
-117 -118 -119 0
-121 -122 -123 0
-121 -122 -124 0
-121 -122 -125 0
-121 -123 -124 0
-121 -123 -125 0
-121 -124 -125 0
-122 -123 -124 0
-122 -123 -125 0
-122 -124 -125 0
-123 -124 -125 0
76 42 28 0
114 42 28 0
114 76 28 0
114 76 42 0
67 104 46 0
62 104 46 0
62 67 46 0
62 67 104 0
29 21 57 0
101 21 57 0
101 29 57 0
101 29 21 0
33 40 12 0
60 40 12 0
60 33 12 0
60 33 40 0
13 86 73 0
81 86 73 0
81 13 73 0
81 13 86 0
75 8 125 0
20 8 125 0
20 75 125 0
20 75 8 0
97 32 95 0
122 32 95 0
122 97 95 0
122 97 32 0
63 44 120 0
35 44 120 0
35 63 120 0
35 63 44 0
69 80 36 0
47 80 36 0
47 69 36 0
47 69 80 0
2 124 9 0
41 124 9 0
41 2 9 0
41 2 124 0
37 96 31 0
27 96 31 0
27 37 31 0
27 37 96 0
6 43 68 0
111 43 68 0
111 6 68 0
111 6 43 0
49 100 70 0
107 100 70 0
107 49 70 0
107 49 100 0
74 10 64 0
99 10 64 0
99 74 64 0
99 74 10 0
5 87 51 0
91 87 51 0
91 5 51 0
91 5 87 0
93 89 17 0
61 89 17 0
61 93 17 0
61 93 89 0
16 113 24 0
121 113 24 0
121 16 24 0
121 16 113 0
79 26 11 0
23 26 11 0
23 79 11 0
23 79 26 0
117 78 58 0
88 78 58 0
88 117 58 0
88 117 78 0
15 19 59 0
52 19 59 0
52 15 59 0
52 15 19 0
66 25 71 0
118 25 71 0
118 66 71 0
118 66 25 0
7 72 82 0
4 72 82 0
4 7 82 0
4 7 72 0
65 92 14 0
106 92 14 0
106 65 14 0
106 65 92 0
55 105 83 0
116 105 83 0
116 55 83 0
116 55 105 0
108 110 123 0
48 110 123 0
48 108 123 0
48 108 110 0
22 3 50 0
54 3 50 0
54 22 50 0
54 22 3 0
39 119 56 0
45 119 56 0
45 39 56 0
45 39 119 0
30 18 109 0
1 18 109 0
1 30 109 0
1 30 18 0
77 84 38 0
90 84 38 0
90 77 38 0
90 77 84 0
103 115 98 0
85 115 98 0
85 103 98 0
85 103 115 0
112 102 94 0
112 102 34 0
112 102 53 0
112 94 34 0
112 94 53 0
112 34 53 0
102 94 34 0
102 94 53 0
102 34 53 0
94 34 53 0
